<?xml version = "1.0" standalone="yes"?>
<!-- This file has been generated by DOcplex version 2.23.222  -->
<CPLEXSolution version="1.0">
 <header
   problemName="CVRP"
   objectiveValue="16388"
  />
 <variables>
  <variable name="x_0_1" index="0" value="1.00000"/>
  <variable name="x_0_2" index="1" value="1.00000"/>
  <variable name="x_0_3" index="2" value="1.00000"/>
  <variable name="x_0_4" index="3" value="1.00000"/>
  <variable name="x_0_5" index="4" value="1.00000"/>
  <variable name="x_0_6" index="5" value="1.00000"/>
  <variable name="x_0_7" index="6" value="1.00000"/>
  <variable name="x_0_10" index="9" value="1.00000"/>
  <variable name="x_0_11" index="10" value="1.00000"/>
  <variable name="x_0_12" index="11" value="1.00000"/>
  <variable name="x_0_13" index="12" value="1.00000"/>
  <variable name="x_0_23" index="22" value="1.00000"/>
  <variable name="x_0_24" index="23" value="1.00000"/>
  <variable name="x_0_27" index="26" value="1.00000"/>
  <variable name="x_0_29" index="28" value="1.00000"/>
  <variable name="x_1_0" index="30" value="1.00000"/>
  <variable name="x_2_20" index="79" value="1.00000"/>
  <variable name="x_3_0" index="90" value="1.00000"/>
  <variable name="x_4_19" index="138" value="1.00000"/>
  <variable name="x_5_30" index="179" value="1.00000"/>
  <variable name="x_6_28" index="207" value="1.00000"/>
  <variable name="x_7_15" index="224" value="1.00000"/>
  <variable name="x_8_0" index="240" value="1.00000"/>
  <variable name="x_9_0" index="270" value="1.00000"/>
  <variable name="x_10_0" index="300" value="1.00000"/>
  <variable name="x_11_26" index="355" value="1.00000"/>
  <variable name="x_12_0" index="360" value="1.00000"/>
  <variable name="x_13_0" index="390" value="1.00000"/>
  <variable name="x_14_0" index="420" value="1.00000"/>
  <variable name="x_15_21" index="470" value="1.00000"/>
  <variable name="x_16_0" index="480" value="1.00000"/>
  <variable name="x_17_9" index="519" value="1.00000"/>
  <variable name="x_18_0" index="540" value="1.00000"/>
  <variable name="x_19_0" index="570" value="1.00000"/>
  <variable name="x_20_25" index="624" value="1.00000"/>
  <variable name="x_21_0" index="630" value="1.00000"/>
  <variable name="x_22_0" index="660" value="1.00000"/>
  <variable name="x_23_16" index="706" value="1.00000"/>
  <variable name="x_24_18" index="738" value="1.00000"/>
  <variable name="x_25_14" index="764" value="1.00000"/>
  <variable name="x_26_0" index="780" value="1.00000"/>
  <variable name="x_27_8" index="818" value="1.00000"/>
  <variable name="x_28_0" index="840" value="1.00000"/>
  <variable name="x_29_17" index="887" value="1.00000"/>
  <variable name="x_30_22" index="922" value="1.00000"/>
  <variable name="u_1" index="930" value="40.00000"/>
  <variable name="u_2" index="931" value="13.00000"/>
  <variable name="u_3" index="932" value="40.00000"/>
  <variable name="u_4" index="933" value="5.00000"/>
  <variable name="u_5" index="934" value="4.00000"/>
  <variable name="u_6" index="935" value="24.00000"/>
  <variable name="u_7" index="936" value="6.00000"/>
  <variable name="u_8" index="937" value="44.00000"/>
  <variable name="u_9" index="938" value="44.00000"/>
  <variable name="u_10" index="939" value="30.00000"/>
  <variable name="u_11" index="940" value="13.00000"/>
  <variable name="u_12" index="941" value="26.00000"/>
  <variable name="u_13" index="942" value="43.00000"/>
  <variable name="u_14" index="943" value="43.00000"/>
  <variable name="u_15" index="944" value="27.00000"/>
  <variable name="u_16" index="945" value="44.00000"/>
  <variable name="u_17" index="946" value="17.00000"/>
  <variable name="u_18" index="947" value="44.00000"/>
  <variable name="u_19" index="948" value="27.00000"/>
  <variable name="u_20" index="949" value="17.00000"/>
  <variable name="u_21" index="950" value="35.00000"/>
  <variable name="u_22" index="951" value="44.00000"/>
  <variable name="u_23" index="952" value="19.00000"/>
  <variable name="u_24" index="953" value="16.00000"/>
  <variable name="u_25" index="954" value="24.00000"/>
  <variable name="u_26" index="955" value="43.00000"/>
  <variable name="u_27" index="956" value="36.00000"/>
  <variable name="u_28" index="957" value="40.00000"/>
  <variable name="u_29" index="958" value="4.00000"/>
  <variable name="u_30" index="959" value="18.00000"/>
 </variables>
</CPLEXSolution>
